myproject/instances/20nodes/rnd17_20.tsp
NAME : rnd17_20.tsp
TYPE : TSP
DIMENSION : 20
EDGE_WEIGHT_TYPE : EUC_2D
NODE_COORD_SECTION
0 603 932
1 102 223
2 746 18
3 666 335
4 788 798
5 635 638
6 64 153
7 93 418
8 45 904
9 583 752
10 184 312
11 583 353
12 217 766
13 596 526
14 598 942
15 30 761
16 380 715
17 576 478
18 416 6
19 609 211
