myproject/instances/20nodes/rnd17_20.opt.tour
NAME : rnd17_20.tsp.tsp.optbc.tour
TYPE : TOUR
DIMENSION : 20
TOUR_SECTION
0
4
5
13
17
11
3
19
2
18
6
1
10
7
15
8
12
16
9
14
-1